\ Equation counts
\     Total        E        G        L        N        X        C        B
\	60	60	0	0
\
\ Variable counts
\                  x        b        i      s1s      s2s       sc       si
\     Total     cont   binary  integer     sos1     sos2    scont     sint
\	20	20

\ Nonzero counts
\     Total    const       NL      DLL
\
\
Minimize
 obj: [ - 17.5 x_1 * x_1 + 3.0 x_1 * x_2 + 6.0 x_1 * x_3 + 10.0 x_1 * x_4 + 6.0 x_1 * x_5 - 13.5 x_1 * x_6 + 14.5 x_1 * x_7 + 22.0 x_1 * x_8 + 24.0 x_1 * x_9 + 3.0 x_1 * x_10 - 19.0 x_1 * x_11 - 6.0 x_1 * x_12 + 15.5 x_1 * x_13 + 11.0 x_1 * x_14 - 5.0 x_1 * x_15 + 0.5 x_1 * x_16 + 5.0 x_1 * x_17 + 22.0 x_1 * x_18 + 7.0 x_1 * x_19 - 10.5 x_1 * x_20 + 3.0 x_2 * x_1 + 17.0 x_2 * x_2 - 7.5 x_2 * x_3 + 3.0 x_2 * x_4 + 24.0 x_2 * x_5 - 21.5 x_2 * x_6 - 5.0 x_2 * x_7 + 3.0 x_2 * x_8 - 23.5 x_2 * x_9 - 20.5 x_2 * x_10 - 2.5 x_2 * x_11 - 5.0 x_2 * x_12 - 7.5 x_2 * x_13 - 19.5 x_2 * x_14 + 12.5 x_2 * x_15 + 7.0 x_2 * x_16 - 23.5 x_2 * x_17 + 9.5 x_2 * x_18 + 24.5 x_2 * x_19 - 11.5 x_2 * x_20 + 6.0 x_3 * x_1 - 7.5 x_3 * x_2 + 3.5 x_3 * x_3 + 6.5 x_3 * x_4 - 5.5 x_3 * x_5 - 18.0 x_3 * x_6 - 13.0 x_3 * x_7 + 10.5 x_3 * x_8 - 19.0 x_3 * x_9 + 11.0 x_3 * x_10 - 17.5 x_3 * x_11 + 20.5 x_3 * x_12 + 14.0 x_3 * x_13 + 22.0 x_3 * x_14 + 5.5 x_3 * x_15 - 22.5 x_3 * x_16 + 10.0 x_3 * x_17 + 24.5 x_3 * x_18 + 4.0 x_3 * x_19 + 21.0 x_3 * x_20 + 10.0 x_4 * x_1 + 3.0 x_4 * x_2 + 6.5 x_4 * x_3 + 11.0 x_4 * x_4 - 22.0 x_4 * x_5 + 13.0 x_4 * x_6 + 23.0 x_4 * x_7 - 0.5 x_4 * x_8 + 15.5 x_4 * x_9 - 3.0 x_4 * x_10 - 24.0 x_4 * x_11 + 12.0 x_4 * x_12 + 22.5 x_4 * x_13 - 20.0 x_4 * x_14 + 14.5 x_4 * x_15 - 20.0 x_4 * x_16 - 15.5 x_4 * x_17 + 1.0 x_4 * x_18 - 10.5 x_4 * x_19 + 18.5 x_4 * x_20 + 6.0 x_5 * x_1 + 24.0 x_5 * x_2 - 5.5 x_5 * x_3 - 22.0 x_5 * x_4 - 23.0 x_5 * x_5 - 6.5 x_5 * x_6 + 24.5 x_5 * x_7 - 14.5 x_5 * x_8 + 14.0 x_5 * x_9 + 20.0 x_5 * x_10 + 14.5 x_5 * x_11 - 21.0 x_5 * x_12 + 9.5 x_5 * x_13 - 21.0 x_5 * x_14 + 13.5 x_5 * x_15 + 22.5 x_5 * x_16 + 17.0 x_5 * x_18 - 15.0 x_5 * x_19 + 16.0 x_5 * x_20 - 13.5 x_6 * x_1 - 21.5 x_6 * x_2 - 18.0 x_6 * x_3 + 13.0 x_6 * x_4 - 6.5 x_6 * x_5 - 21.5 x_6 * x_6 - 3.5 x_6 * x_7 + 7.0 x_6 * x_8 - 11.0 x_6 * x_9 + 4.5 x_6 * x_10 - 16.0 x_6 * x_11 + 9.5 x_6 * x_12 + 0.5 x_6 * x_13 - 1.5 x_6 * x_14 + 10.0 x_6 * x_15 - 12.0 x_6 * x_16 - 14.5 x_6 * x_17 + 8.5 x_6 * x_18 + 17.0 x_6 * x_19 - 22.5 x_6 * x_20 + 14.5 x_7 * x_1 - 5.0 x_7 * x_2 - 13.0 x_7 * x_3 + 23.0 x_7 * x_4 + 24.5 x_7 * x_5 - 3.5 x_7 * x_6 - 5.0 x_7 * x_7 - 19.0 x_7 * x_8 + 13.0 x_7 * x_10 + 5.5 x_7 * x_11 + 23.5 x_7 * x_12 - 12.0 x_7 * x_13 + 9.0 x_7 * x_14 - 7.5 x_7 * x_15 - 4.0 x_7 * x_16 + 1.0 x_7 * x_17 - 4.0 x_7 * x_18 - 0.5 x_7 * x_19 + 20.5 x_7 * x_20 + 22.0 x_8 * x_1 + 3.0 x_8 * x_2 + 10.5 x_8 * x_3 - 0.5 x_8 * x_4 - 14.5 x_8 * x_5 + 7.0 x_8 * x_6 - 19.0 x_8 * x_7 + 4.0 x_8 * x_8 + 18.5 x_8 * x_9 + 4.5 x_8 * x_10 + 12.5 x_8 * x_11 + 3.5 x_8 * x_12 - 19.0 x_8 * x_13 + 0.5 x_8 * x_15 - 7.0 x_8 * x_16 + 9.5 x_8 * x_17 - 13.5 x_8 * x_18 + 24.5 x_8 * x_19 + 8.5 x_8 * x_20 + 24.0 x_9 * x_1 - 23.5 x_9 * x_2 - 19.0 x_9 * x_3 + 15.5 x_9 * x_4 + 14.0 x_9 * x_5 - 11.0 x_9 * x_6 + 18.5 x_9 * x_8 + 8.0 x_9 * x_9 + 20.5 x_9 * x_10 + 17.5 x_9 * x_11 - 1.5 x_9 * x_12 - 9.0 x_9 * x_13 + 4.0 x_9 * x_14 + 24.5 x_9 * x_15 - 20.5 x_9 * x_16 - 19.0 x_9 * x_17 - 8.0 x_9 * x_19 + 3.0 x_9 * x_20 + 3.0 x_10 * x_1 - 20.5 x_10 * x_2 + 11.0 x_10 * x_3 - 3.0 x_10 * x_4 + 20.0 x_10 * x_5 + 4.5 x_10 * x_6 + 13.0 x_10 * x_7 + 4.5 x_10 * x_8 + 20.5 x_10 * x_9 + 0.5 x_10 * x_10 - 3.5 x_10 * x_11 - 5.0 x_10 * x_12 + 14.5 x_10 * x_13 - 16.0 x_10 * x_14 - 1.0 x_10 * x_15 - 7.5 x_10 * x_16 - 22.0 x_10 * x_17 + 9.5 x_10 * x_18 + 20.5 x_10 * x_19 - 19.0 x_11 * x_1 - 2.5 x_11 * x_2 - 17.5 x_11 * x_3 - 24.0 x_11 * x_4 + 14.5 x_11 * x_5 - 16.0 x_11 * x_6 + 5.5 x_11 * x_7 + 12.5 x_11 * x_8 + 17.5 x_11 * x_9 - 3.5 x_11 * x_10 - 17.5 x_11 * x_11 - 19.5 x_11 * x_12 + 10.5 x_11 * x_13 - 22.0 x_11 * x_14 + 8.5 x_11 * x_15 - 22.5 x_11 * x_16 + 3.0 x_11 * x_17 + 6.0 x_11 * x_18 + 21.0 x_11 * x_19 - 14.5 x_11 * x_20 - 6.0 x_12 * x_1 - 5.0 x_12 * x_2 + 20.5 x_12 * x_3 + 12.0 x_12 * x_4 - 21.0 x_12 * x_5 + 9.5 x_12 * x_6 + 23.5 x_12 * x_7 + 3.5 x_12 * x_8 - 1.5 x_12 * x_9 - 5.0 x_12 * x_10 - 19.5 x_12 * x_11 - 22.0 x_12 * x_12 - 7.0 x_12 * x_13 - 16.0 x_12 * x_14 - 11.0 x_12 * x_15 - 21.0 x_12 * x_16 + 4.5 x_12 * x_17 - 2.0 x_12 * x_18 + 12.5 x_12 * x_19 - 7.5 x_12 * x_20 + 15.5 x_13 * x_1 - 7.5 x_13 * x_2 + 14.0 x_13 * x_3 + 22.5 x_13 * x_4 + 9.5 x_13 * x_5 + 0.5 x_13 * x_6 - 12.0 x_13 * x_7 - 19.0 x_13 * x_8 - 9.0 x_13 * x_9 + 14.5 x_13 * x_10 + 10.5 x_13 * x_11 - 7.0 x_13 * x_12 + 24.5 x_13 * x_13 + 5.0 x_13 * x_14 + 8.0 x_13 * x_15 + 23.5 x_13 * x_16 + 10.5 x_13 * x_17 - 18.5 x_13 * x_18 + 10.0 x_13 * x_19 + 22.5 x_13 * x_20 + 11.0 x_14 * x_1 - 19.5 x_14 * x_2 + 22.0 x_14 * x_3 - 20.0 x_14 * x_4 - 21.0 x_14 * x_5 - 1.5 x_14 * x_6 + 9.0 x_14 * x_7 + 4.0 x_14 * x_9 - 16.0 x_14 * x_10 - 22.0 x_14 * x_11 - 16.0 x_14 * x_12 + 5.0 x_14 * x_13 - 6.5 x_14 * x_14 - 7.0 x_14 * x_15 - 8.5 x_14 * x_16 - 7.5 x_14 * x_17 - 23.0 x_14 * x_18 + 21.0 x_14 * x_19 + 8.5 x_14 * x_20 - 5.0 x_15 * x_1 + 12.5 x_15 * x_2 + 5.5 x_15 * x_3 + 14.5 x_15 * x_4 + 13.5 x_15 * x_5 + 10.0 x_15 * x_6 - 7.5 x_15 * x_7 + 0.5 x_15 * x_8 + 24.5 x_15 * x_9 - 1.0 x_15 * x_10 + 8.5 x_15 * x_11 - 11.0 x_15 * x_12 + 8.0 x_15 * x_13 - 7.0 x_15 * x_14 - 8.5 x_15 * x_15 - 21.5 x_15 * x_16 + 5.0 x_15 * x_17 - 16.0 x_15 * x_18 - 13.5 x_15 * x_19 + 17.0 x_15 * x_20 + 0.5 x_16 * x_1 + 7.0 x_16 * x_2 - 22.5 x_16 * x_3 - 20.0 x_16 * x_4 + 22.5 x_16 * x_5 - 12.0 x_16 * x_6 - 4.0 x_16 * x_7 - 7.0 x_16 * x_8 - 20.5 x_16 * x_9 - 7.5 x_16 * x_10 - 22.5 x_16 * x_11 - 21.0 x_16 * x_12 + 23.5 x_16 * x_13 - 8.5 x_16 * x_14 - 21.5 x_16 * x_15 + 22.5 x_16 * x_16 + 0.5 x_16 * x_17 + 15.5 x_16 * x_18 + 1.0 x_16 * x_19 + 18.5 x_16 * x_20 + 5.0 x_17 * x_1 - 23.5 x_17 * x_2 + 10.0 x_17 * x_3 - 15.5 x_17 * x_4 - 14.5 x_17 * x_6 + 1.0 x_17 * x_7 + 9.5 x_17 * x_8 - 19.0 x_17 * x_9 - 22.0 x_17 * x_10 + 3.0 x_17 * x_11 + 4.5 x_17 * x_12 + 10.5 x_17 * x_13 - 7.5 x_17 * x_14 + 5.0 x_17 * x_15 + 0.5 x_17 * x_16 + 18.5 x_17 * x_17 + 14.0 x_17 * x_18 - 8.0 x_17 * x_19 - 21.0 x_17 * x_20 + 22.0 x_18 * x_1 + 9.5 x_18 * x_2 + 24.5 x_18 * x_3 + 1.0 x_18 * x_4 + 17.0 x_18 * x_5 + 8.5 x_18 * x_6 - 4.0 x_18 * x_7 - 13.5 x_18 * x_8 + 9.5 x_18 * x_10 + 6.0 x_18 * x_11 - 2.0 x_18 * x_12 - 18.5 x_18 * x_13 - 23.0 x_18 * x_14 - 16.0 x_18 * x_15 + 15.5 x_18 * x_16 + 14.0 x_18 * x_17 + 1.0 x_18 * x_18 + 12.0 x_18 * x_19 + 21.5 x_18 * x_20 + 7.0 x_19 * x_1 + 24.5 x_19 * x_2 + 4.0 x_19 * x_3 - 10.5 x_19 * x_4 - 15.0 x_19 * x_5 + 17.0 x_19 * x_6 - 0.5 x_19 * x_7 + 24.5 x_19 * x_8 - 8.0 x_19 * x_9 + 20.5 x_19 * x_10 + 21.0 x_19 * x_11 + 12.5 x_19 * x_12 + 10.0 x_19 * x_13 + 21.0 x_19 * x_14 - 13.5 x_19 * x_15 + 1.0 x_19 * x_16 - 8.0 x_19 * x_17 + 12.0 x_19 * x_18 - 4.0 x_19 * x_19 + 17.5 x_19 * x_20 - 10.5 x_20 * x_1 - 11.5 x_20 * x_2 + 21.0 x_20 * x_3 + 18.5 x_20 * x_4 + 16.0 x_20 * x_5 - 22.5 x_20 * x_6 + 20.5 x_20 * x_7 + 8.5 x_20 * x_8 + 3.0 x_20 * x_9 - 14.5 x_20 * x_11 - 7.5 x_20 * x_12 + 22.5 x_20 * x_13 + 8.5 x_20 * x_14 + 17.0 x_20 * x_15 + 18.5 x_20 * x_16 - 21.0 x_20 * x_17 + 21.5 x_20 * x_18 + 17.5 x_20 * x_19 - 16.5 x_20 * x_20 ] - 8.0 x_1 + 15.0 x_2 + 27.0 x_3 - 19.0 x_4 - 36.0 x_5 + 17.0 x_6 - 10.0 x_7 + 43.0 x_8 + 33.0 x_9 + 16.0 x_10 - 28.0 x_11 + 11.0 x_12 + 4.0 x_13 + 45.0 x_14 - 36.0 x_15 - 5.0 x_16 - 2.0 x_17 + 17.0 x_18 - 3.0 x_19 + 46.0 x_20

Subject To
 e2: [  x_1 * x_15 ] = 0.0
 e3: [  x_1 * x_20 ] = 0.0
 e4: [  x_2 * x_8 ] = 0.0
 e5: [  x_2 * x_10 ] = 0.0
 e6: [  x_2 * x_15 ] = 0.0
 e7: [  x_3 * x_6 ] = 0.0
 e8: [  x_4 * x_4 ] = 0.0
 e9: [  x_4 * x_5 ] = 0.0
 e10: [  x_4 * x_19 ] = 0.0
 e11: [  x_5 * x_1 ] = 0.0
 e12: [  x_5 * x_2 ] = 0.0
 e13: [  x_6 * x_5 ] = 0.0
 e14: [  x_6 * x_6 ] = 0.0
 e15: [  x_6 * x_15 ] = 0.0
 e16: [  x_7 * x_10 ] = 0.0
 e17: [  x_7 * x_11 ] = 0.0
 e18: [  x_8 * x_1 ] = 0.0
 e19: [  x_9 * x_4 ] = 0.0
 e20: [  x_9 * x_19 ] = 0.0
 e21: [  x_9 * x_20 ] = 0.0
 e22: [  x_10 * x_13 ] = 0.0
 e23: [  x_10 * x_15 ] = 0.0
 e24: [  x_10 * x_16 ] = 0.0
 e25: [  x_11 * x_6 ] = 0.0
 e26: [  x_11 * x_9 ] = 0.0
 e27: [  x_11 * x_16 ] = 0.0
 e28: [  x_11 * x_19 ] = 0.0
 e29: [  x_11 * x_20 ] = 0.0
 e30: [  x_12 * x_19 ] = 0.0
 e31: [  x_13 * x_6 ] = 0.0
 e32: [  x_13 * x_9 ] = 0.0
 e33: [  x_14 * x_1 ] = 0.0
 e34: [  x_14 * x_10 ] = 0.0
 e35: [  x_14 * x_13 ] = 0.0
 e36: [  x_14 * x_18 ] = 0.0
 e37: [  x_15 * x_3 ] = 0.0
 e38: [  x_15 * x_5 ] = 0.0
 e39: [  x_15 * x_9 ] = 0.0
 e40: [  x_15 * x_12 ] = 0.0
 e41: [  x_15 * x_20 ] = 0.0
 e42: [  x_16 * x_3 ] = 0.0
 e43: [  x_16 * x_14 ] = 0.0
 e44: [  x_16 * x_19 ] = 0.0
 e45: [  x_17 * x_2 ] = 0.0
 e46: [  x_17 * x_10 ] = 0.0
 e47: [  x_17 * x_14 ] = 0.0
 e48: [  x_17 * x_19 ] = 0.0
 e49: [  x_18 * x_8 ] = 0.0
 e50: [  x_18 * x_12 ] = 0.0
 e51: [  x_18 * x_20 ] = 0.0
 e52: [  x_19 * x_2 ] = 0.0
 e53: [  x_19 * x_19 ] = 0.0
 e54: [  x_20 * x_1 ] = 0.0
 e55: [  x_20 * x_3 ] = 0.0
 e56: [  x_20 * x_5 ] = 0.0
 e57: [  x_20 * x_7 ] = 0.0
 e58: [  x_20 * x_8 ] = 0.0
 e59: [  x_20 * x_11 ] = 0.0
 e60: [  x_20 * x_12 ] = 0.0
 e61: [  x_20 * x_20 ] = 0.0

Bounds
 x_1 <= 1.0
 x_2 <= 1.0
 x_3 <= 1.0
 x_4 <= 1.0
 x_5 <= 1.0
 x_6 <= 1.0
 x_7 <= 1.0
 x_8 <= 1.0
 x_9 <= 1.0
 x_10 <= 1.0
 x_11 <= 1.0
 x_12 <= 1.0
 x_13 <= 1.0
 x_14 <= 1.0
 x_15 <= 1.0
 x_16 <= 1.0
 x_17 <= 1.0
 x_18 <= 1.0
 x_19 <= 1.0
 x_20 <= 1.0

End